clear
units		metal
dimension	3
boundary	p p p
atom_style	atomic
atom_modify map yes
newton 		on

read_data	hea.lmp
 
# Change to the MACE NNP you want to use:
variable 	ff string "/home/michele/benchmark-mace/models-uob/GPU_Models/BCC/mace01_64channel_stagetwo.model-lammps.pt"

pair_style  mace no_domain_decomposition
pair_coeff	* * ${ff} Mo W Al Ti Cr
